50
1962

389 173
635 174
176 386
370 28
351 876
573 178
545 49
240 602
782 486
308 644
57 213
542 224
463 753
672 435
806 880
35 896
60 604
425 186
547 770
136 819
517 822
780 27
132 514
417 977
673 622
539 29
964 481
195 477
576 345
273 231
13 258
22 58
388 521
111 120
940 89
635 932
316 106
192 171
62 805
232 177
327 106
693 56
777 874
3 548
343 163
330 218
354 727
768 507
946 922
961 264
